Instance: E200-17c.dat
Class:  3
  199 --- number of customers (no depot)
   41 --- number of vehicles
  407 --- number of items
Capacity - height - width of vehicles
   200     40     20
Node - x - y - demand
    0    35.0    35.0     0.0
    1    22.0    22.0    18.0
    2    36.0    26.0    26.0
    3    21.0    45.0    11.0
    4    45.0    35.0    30.0
    5    55.0    20.0    21.0
    6    33.0    34.0    19.0
    7    50.0    50.0    15.0
    8    55.0    45.0    16.0
    9    26.0    59.0    29.0
   10    40.0    66.0    26.0
   11    55.0    65.0    37.0
   12    35.0    51.0    16.0
   13    62.0    35.0    12.0
   14    62.0    57.0    31.0
   15    62.0    24.0     8.0
   16    21.0    36.0    19.0
   17    33.0    44.0    20.0
   18     9.0    56.0    13.0
   19    62.0    48.0    15.0
   20    66.0    14.0    22.0
   21    44.0    13.0    28.0
   22    26.0    13.0    12.0
   23    11.0    28.0     6.0
   24     7.0    43.0    27.0
   25    17.0    64.0    14.0
   26    41.0    46.0    18.0
   27    55.0    34.0    17.0
   28    35.0    16.0    29.0
   29    52.0    26.0    13.0
   30    43.0    26.0    22.0
   31    31.0    76.0    25.0
   32    22.0    53.0    28.0
   33    26.0    29.0    27.0
   34    50.0    40.0    19.0
   35    55.0    50.0    10.0
   36    54.0    10.0    12.0
   37    60.0    15.0    14.0
   38    47.0    66.0    24.0
   39    30.0    60.0    16.0
   40    30.0    50.0    33.0
   41    12.0    17.0    15.0
   42    15.0    14.0    11.0
   43    16.0    19.0    18.0
   44    21.0    48.0    17.0
   45    50.0    30.0    21.0
   46    51.0    42.0    27.0
   47    50.0    15.0    19.0
   48    48.0    21.0    20.0
   49    12.0    38.0     5.0
   50    37.0    52.0     7.0
   51    49.0    49.0    30.0
   52    52.0    64.0    16.0
   53    20.0    26.0     9.0
   54    40.0    30.0    21.0
   55    21.0    47.0    15.0
   56    17.0    63.0    19.0
   57    31.0    62.0    23.0
   58    52.0    33.0    11.0
   59    51.0    21.0     5.0
   60    42.0    41.0    19.0
   61    31.0    32.0    29.0
   62     5.0    25.0    23.0
   63    12.0    42.0    21.0
   64    36.0    16.0    10.0
   65    52.0    41.0    15.0
   66    27.0    23.0     3.0
   67    17.0    33.0    41.0
   68    13.0    13.0     9.0
   69    57.0    58.0    28.0
   70    62.0    42.0     8.0
   71    42.0    57.0     8.0
   72    16.0    57.0    16.0
   73     8.0    52.0    10.0
   74     7.0    38.0    28.0
   75    27.0    68.0     7.0
   76    30.0    48.0    15.0
   77    43.0    67.0    14.0
   78    58.0    48.0     6.0
   79    58.0    27.0    19.0
   80    37.0    69.0    11.0
   81    38.0    46.0    12.0
   82    46.0    10.0    23.0
   83    61.0    33.0    26.0
   84    62.0    63.0    17.0
   85    63.0    69.0     6.0
   86    32.0    22.0     9.0
   87    45.0    35.0    15.0
   88    59.0    15.0    14.0
   89     5.0     6.0     7.0
   90    10.0    17.0    27.0
   91    21.0    10.0    13.0
   92     5.0    64.0    11.0
   93    30.0    15.0    16.0
   94    39.0    10.0    10.0
   95    32.0    39.0     5.0
   96    25.0    32.0    25.0
   97    25.0    55.0    17.0
   98    48.0    28.0    18.0
   99    56.0    37.0    10.0
  100    41.0    49.0    10.0
  101    35.0    17.0     7.0
  102    55.0    45.0    13.0
  103    55.0    20.0    19.0
  104    15.0    30.0    26.0
  105    25.0    30.0     3.0
  106    20.0    50.0     5.0
  107    10.0    43.0     9.0
  108    55.0    60.0    16.0
  109    30.0    60.0    16.0
  110    20.0    65.0    12.0
  111    50.0    35.0    19.0
  112    30.0    25.0    23.0
  113    15.0    10.0    20.0
  114    30.0     5.0     8.0
  115    10.0    20.0    19.0
  116     5.0    30.0     2.0
  117    20.0    40.0    12.0
  118    15.0    60.0    17.0
  119    45.0    65.0     9.0
  120    45.0    20.0    11.0
  121    45.0    10.0    18.0
  122    55.0     5.0    29.0
  123    65.0    35.0     3.0
  124    65.0    20.0     6.0
  125    45.0    30.0    17.0
  126    35.0    40.0    16.0
  127    41.0    37.0    16.0
  128    64.0    42.0     9.0
  129    40.0    60.0    21.0
  130    31.0    52.0    27.0
  131    35.0    69.0    23.0
  132    53.0    52.0    11.0
  133    65.0    55.0    14.0
  134    63.0    65.0     8.0
  135     2.0    60.0     5.0
  136    20.0    20.0     8.0
  137     5.0     5.0    16.0
  138    60.0    12.0    31.0
  139    40.0    25.0     9.0
  140    42.0     7.0     5.0
  141    24.0    12.0     5.0
  142    23.0     3.0     7.0
  143    11.0    14.0    18.0
  144     6.0    38.0    16.0
  145     2.0    48.0     1.0
  146     8.0    56.0    27.0
  147    13.0    52.0    36.0
  148     6.0    68.0    30.0
  149    47.0    47.0    13.0
  150    49.0    58.0    10.0
  151    27.0    43.0     9.0
  152    37.0    31.0    14.0
  153    57.0    29.0    18.0
  154    63.0    23.0     2.0
  155    53.0    12.0     6.0
  156    32.0    12.0     7.0
  157    36.0    26.0    18.0
  158    21.0    24.0    28.0
  159    17.0    34.0     3.0
  160    12.0    24.0    13.0
  161    24.0    58.0    19.0
  162    27.0    69.0    10.0
  163    15.0    77.0     9.0
  164    62.0    77.0    20.0
  165    49.0    73.0    25.0
  166    67.0     5.0    25.0
  167    56.0    39.0    36.0
  168    37.0    47.0     6.0
  169    37.0    56.0     5.0
  170    57.0    68.0    15.0
  171    47.0    16.0    25.0
  172    44.0    17.0     9.0
  173    46.0    13.0     8.0
  174    49.0    11.0    18.0
  175    49.0    42.0    13.0
  176    53.0    43.0    14.0
  177    61.0    52.0     3.0
  178    57.0    48.0    23.0
  179    56.0    37.0     6.0
  180    55.0    54.0    26.0
  181    15.0    47.0    16.0
  182    14.0    37.0    11.0
  183    11.0    31.0     7.0
  184    16.0    22.0    41.0
  185     4.0    18.0    35.0
  186    28.0    18.0    26.0
  187    26.0    52.0     9.0
  188    26.0    35.0    15.0
  189    31.0    67.0     3.0
  190    15.0    19.0     1.0
  191    22.0    22.0     2.0
  192    18.0    24.0    22.0
  193    26.0    27.0    27.0
  194    25.0    24.0    20.0
  195    22.0    27.0    11.0
  196    25.0    21.0    12.0
  197    19.0    21.0    10.0
  198    20.0    26.0     9.0
  199    18.0    18.0    17.0
Node - number of items - h - w for each item
    0   0
    1   2    5   11   17    3
    2   3   15    7   10    6   30    3
    3   2    6   15   15    5
    4   3   15    5   26    4   20    3
    5   3    6   12   12    6   30    4
    6   3    7    9    9    7    4    7
    7   3   31    4   22    4   30    3
    8   2    6   16   17    3
    9   1    5    7
   10   3    9    6    9    4   19    3
   11   3    9    5   20    3   16    2
   12   2   15    6   28    3
   13   1   22    4
   14   3    7   11   29    3   22    3
   15   1    5   15
   16   2    5   14    7   10
   17   1   13    8
   18   2   11    7   10    6
   19   2    6   11   19    3
   20   3    6   10    4   10   28    4
   21   1   11    5
   22   1   13    4
   23   1   18    2
   24   1   13    4
   25   2    8   10   10    5
   26   3    6    8    5    7   15    5
   27   3    4   13    8   10    9    6
   28   2    7   15   30    2
   29   3    5   15    5   11   29    3
   30   1    6    7
   31   1    5   15
   32   3    8    8   31    2   22    2
   33   2    8   13   14    7
   34   1    6   11
   35   1   26    4
   36   3   15    7   12    7   11    6
   37   1   11    8
   38   3   12    8   15    5   30    4
   39   1   14    4
   40   1   11    7
   41   2    6   11   29    3
   42   2    6   15    7    9
   43   3    6   16    7   15   13    4
   44   2    6   11    6    6
   45   2    7   15   27    4
   46   2    7    9    6    8
   47   2   13    8   17    4
   48   2    7   13   15    8
   49   1   10    6
   50   3   15    8    6    8   16    2
   51   2    5   14   24    3
   52   2    4   13    8   10
   53   1    6   16
   54   1    8    6
   55   3   13    7   11    6   21    3
   56   2   14    4   18    2
   57   1   14    7
   58   2   15    7   31    2
   59   3    4   14   14    7   14    5
   60   1   18    2
   61   3    8   13   26    3   29    2
   62   3    6   13   16    7    8    7
   63   2    5   11    4   10
   64   3    7   15    7   11    6    9
   65   2    4   15    4    8
   66   1    4    8
   67   3    4   10    9    5   18    4
   68   2    8   13   14    7
   69   1   24    2
   70   3    5   12    9    7   12    4
   71   1    8    8
   72   3    8    9    9    6   22    3
   73   2    5   13   23    2
   74   3   14    5   31    4   25    3
   75   2    7   12   12    3
   76   2   12    5   18    3
   77   1   14    7
   78   1   15    5
   79   1    5   16
   80   3    8   10   14    5   11    5
   81   3    4   14   10    6   16    3
   82   2    6   11   29    2
   83   2    5   11   19    3
   84   2    7   13   14    8
   85   1   10    6
   86   1   13    4
   87   2    9    6   27    2
   88   2    6   14    8   10
   89   2    9    8   12    6
   90   1   13    3
   91   3    7    9   19    4   11    4
   92   2    6   10   12    6
   93   2   22    3   16    3
   94   2   11    6   15    5
   95   1   27    3
   96   3   15    7   15    5    9    4
   97   1    5    9
   98   1   13    4
   99   1    5    7
  100   1   28    3
  101   1   24    3
  102   1   12    7
  103   1   13    7
  104   1    6    8
  105   1   12    5
  106   1   13    5
  107   3    5   10    6    9   12    6
  108   2   12    7   14    4
  109   3    7   16    6   13   24    3
  110   2   12    5   23    4
  111   1   20    4
  112   2    4    7   27    3
  113   3    7   15    6   12    9    8
  114   3    7   13    7   10   11    6
  115   1   32    3
  116   1    8    8
  117   2    6   15   26    4
  118   3    7   15    6    8    9    7
  119   3   11    6   17    2   14    2
  120   3   10    5   28    4   13    3
  121   1   28    4
  122   2   13    8   25    3
  123   1   26    3
  124   1   26    4
  125   2    9    7   11    5
  126   3    5   14   12    4   31    3
  127   2   14    4   22    3
  128   2    5   10    7    9
  129   2   14    5   14    5
  130   1    6    7
  131   2   15    5   11    5
  132   3   13    6   15    3   12    3
  133   2   26    3   20    2
  134   2   15    5   13    5
  135   2    6   12   14    6
  136   1   28    2
  137   3    5   14    6    8   13    2
  138   3    9    7   12    6   12    6
  139   2    5   14    5   14
  140   1   16    2
  141   3    4   15    4    8    9    6
  142   2    4   14   14    4
  143   3   16    6   23    4   15    4
  144   2   30    3   20    3
  145   3    6   15    7   13   18    3
  146   2   14    5   16    3
  147   2   32    3   18    2
  148   1   22    4
  149   1   28    3
  150   2    4    9   25    3
  151   1    5   13
  152   2    4   14   10    4
  153   2    5   11   27    2
  154   1   13    5
  155   2    6   12    5    6
  156   2    6   12   12    8
  157   3    7   14   28    2   15    2
  158   3    5   14   31    4   27    2
  159   2   10    5   14    2
  160   3    6   10    7    8    8    7
  161   2   12    7   31    2
  162   1    9    7
  163   3    6    8   14    5   11    5
  164   3    7   12   13    4   26    3
  165   3   10    8   15    7   21    4
  166   3   12    6   29    4   15    4
  167   2    5    9   29    4
  168   1    7   10
  169   3    5   14    5    6    9    4
  170   3    7    9    8    6   18    3
  171   3    5   13    7   12   21    3
  172   1    7   10
  173   3    8   14    6    9    5    9
  174   2   15    4   19    3
  175   3    6   13    7    8   15    3
  176   2   18    4   13    4
  177   1   10    5
  178   1    7   12
  179   2   13    3   32    2
  180   3   13    6   13    6   17    3
  181   3   12    5   18    3   12    3
  182   3    7    8    8    7   11    5
  183   3   10    8    5    8    9    6
  184   3   11    4   10    4    9    4
  185   3    5   16    5   14   11    6
  186   2    5    9   13    2
  187   1   29    3
  188   2   10    5   32    3
  189   3    6   13   10    6   30    3
  190   3    5   13   23    3   29    2
  191   3    4   14    4   14    4   13
  192   2    4   15   12    6
  193   3   12    7    9    7   16    5
  194   3   11    4   15    3   19    2
  195   1    8    5
  196   3    4    9   26    4   21    3
  197   2   10    7   29    4
  198   2   13    6   11    5
  199   3   15    7   12    7   31    3
